/* Objective function */
min: +C197;

/* Constraints */
+C1 +87 C2 +12 C3 +53 C4 +49 C5 +32 C6 +104 C7 +117 C8 +106 C9 +13 C10 +127 C11 +22 C12 +16 C13 +98 C14
 +C15 +87 C16 +12 C17 +53 C18 +49 C19 +32 C20 +104 C21 +117 C22 +106 C23 +13 C24 +127 C25 +22 C26 +16 C27
 +98 C28 +C29 +87 C30 +12 C31 +53 C32 +49 C33 +32 C34 +104 C35 +117 C36 +106 C37 +13 C38 +127 C39 +22 C40
 +16 C41 +98 C42 +C43 +87 C44 +12 C45 +53 C46 +49 C47 +32 C48 +104 C49 +117 C50 +106 C51 +13 C52 +127 C53
 +22 C54 +16 C55 +98 C56 +C57 +87 C58 +12 C59 +53 C60 +49 C61 +32 C62 +104 C63 +117 C64 +106 C65 +13 C66
 +127 C67 +22 C68 +16 C69 +98 C70 +C71 +87 C72 +12 C73 +53 C74 +49 C75 +32 C76 +104 C77 +117 C78 +106 C79
 +13 C80 +127 C81 +22 C82 +16 C83 +98 C84 +C85 +87 C86 +12 C87 +53 C88 +49 C89 +32 C90 +104 C91 +117 C92
 +106 C93 +13 C94 +127 C95 +22 C96 +16 C97 +98 C98 +C99 +87 C100 +12 C101 +53 C102 +49 C103 +32 C104
 +104 C105 +117 C106 +106 C107 +13 C108 +127 C109 +22 C110 +16 C111 +98 C112 +C113 +87 C114 +12 C115
 +53 C116 +49 C117 +32 C118 +104 C119 +117 C120 +106 C121 +13 C122 +127 C123 +22 C124 +16 C125 +98 C126
 +C127 +87 C128 +12 C129 +53 C130 +49 C131 +32 C132 +104 C133 +117 C134 +106 C135 +13 C136 +127 C137
 +22 C138 +16 C139 +98 C140 +C141 +87 C142 +12 C143 +53 C144 +49 C145 +32 C146 +104 C147 +117 C148 +106 C149
 +13 C150 +127 C151 +22 C152 +16 C153 +98 C154 +C155 +87 C156 +12 C157 +53 C158 +49 C159 +32 C160 +104 C161
 +117 C162 +106 C163 +13 C164 +127 C165 +22 C166 +16 C167 +98 C168 +C169 +87 C170 +12 C171 +53 C172 +49 C173
 +32 C174 +104 C175 +117 C176 +106 C177 +13 C178 +127 C179 +22 C180 +16 C181 +98 C182 +C183 +87 C184
 +12 C185 +53 C186 +49 C187 +32 C188 +104 C189 +117 C190 +106 C191 +13 C192 +127 C193 +22 C194 +16 C195
 +98 C196 -180 C197 <= 0;
+31 C1 +25 C2 +92 C3 +66 C4 +165 C5 +51 C6 +176 C7 +23 C8 +75 C9 +39 C10 +157 C11 +C12 +46 C13 +99 C14
 +31 C15 +25 C16 +92 C17 +66 C18 +165 C19 +51 C20 +176 C21 +23 C22 +75 C23 +39 C24 +157 C25 +C26 +46 C27
 +99 C28 +31 C29 +25 C30 +92 C31 +66 C32 +165 C33 +51 C34 +176 C35 +23 C36 +75 C37 +39 C38 +157 C39 +C40
 +46 C41 +99 C42 +31 C43 +25 C44 +92 C45 +66 C46 +165 C47 +51 C48 +176 C49 +23 C50 +75 C51 +39 C52 +157 C53
 +C54 +46 C55 +99 C56 +31 C57 +25 C58 +92 C59 +66 C60 +165 C61 +51 C62 +176 C63 +23 C64 +75 C65 +39 C66
 +157 C67 +C68 +46 C69 +99 C70 +31 C71 +25 C72 +92 C73 +66 C74 +165 C75 +51 C76 +176 C77 +23 C78 +75 C79
 +39 C80 +157 C81 +C82 +46 C83 +99 C84 +31 C85 +25 C86 +92 C87 +66 C88 +165 C89 +51 C90 +176 C91 +23 C92
 +75 C93 +39 C94 +157 C95 +C96 +46 C97 +99 C98 +31 C99 +25 C100 +92 C101 +66 C102 +165 C103 +51 C104
 +176 C105 +23 C106 +75 C107 +39 C108 +157 C109 +C110 +46 C111 +99 C112 +31 C113 +25 C114 +92 C115 +66 C116
 +165 C117 +51 C118 +176 C119 +23 C120 +75 C121 +39 C122 +157 C123 +C124 +46 C125 +99 C126 +31 C127 +25 C128
 +92 C129 +66 C130 +165 C131 +51 C132 +176 C133 +23 C134 +75 C135 +39 C136 +157 C137 +C138 +46 C139 +99 C140
 +31 C141 +25 C142 +92 C143 +66 C144 +165 C145 +51 C146 +176 C147 +23 C148 +75 C149 +39 C150 +157 C151
 +C152 +46 C153 +99 C154 +31 C155 +25 C156 +92 C157 +66 C158 +165 C159 +51 C160 +176 C161 +23 C162 +75 C163
 +39 C164 +157 C165 +C166 +46 C167 +99 C168 +31 C169 +25 C170 +92 C171 +66 C172 +165 C173 +51 C174 +176 C175
 +23 C176 +75 C177 +39 C178 +157 C179 +C180 +46 C181 +99 C182 +31 C183 +25 C184 +92 C185 +66 C186 +165 C187
 +51 C188 +176 C189 +23 C190 +75 C191 +39 C192 +157 C193 +C194 +46 C195 +99 C196 -194 C197 <= 0;
+C1 +C15 +C29 +C43 +C57 +C71 +C85 +C99 +C113 +C127 +C141 +C155 +C169 +C183 = 1;
+C2 +C16 +C30 +C44 +C58 +C72 +C86 +C100 +C114 +C128 +C142 +C156 +C170 +C184 = 1;
+C3 +C17 +C31 +C45 +C59 +C73 +C87 +C101 +C115 +C129 +C143 +C157 +C171 +C185 = 1;
+C4 +C18 +C32 +C46 +C60 +C74 +C88 +C102 +C116 +C130 +C144 +C158 +C172 +C186 = 1;
+C5 +C19 +C33 +C47 +C61 +C75 +C89 +C103 +C117 +C131 +C145 +C159 +C173 +C187 = 1;
+C6 +C20 +C34 +C48 +C62 +C76 +C90 +C104 +C118 +C132 +C146 +C160 +C174 +C188 = 1;
+C7 +C21 +C35 +C49 +C63 +C77 +C91 +C105 +C119 +C133 +C147 +C161 +C175 +C189 = 1;
+C8 +C22 +C36 +C50 +C64 +C78 +C92 +C106 +C120 +C134 +C148 +C162 +C176 +C190 = 1;
+C9 +C23 +C37 +C51 +C65 +C79 +C93 +C107 +C121 +C135 +C149 +C163 +C177 +C191 = 1;
+C10 +C24 +C38 +C52 +C66 +C80 +C94 +C108 +C122 +C136 +C150 +C164 +C178 +C192 = 1;
+C11 +C25 +C39 +C53 +C67 +C81 +C95 +C109 +C123 +C137 +C151 +C165 +C179 +C193 = 1;
+C12 +C26 +C40 +C54 +C68 +C82 +C96 +C110 +C124 +C138 +C152 +C166 +C180 +C194 = 1;
+C13 +C27 +C41 +C55 +C69 +C83 +C97 +C111 +C125 +C139 +C153 +C167 +C181 +C195 = 1;
+C14 +C28 +C42 +C56 +C70 +C84 +C98 +C112 +C126 +C140 +C154 +C168 +C182 +C196 = 1;

/* Variable bounds */
C1 <= 1;
C2 <= 1;
C3 <= 1;
C4 <= 1;
C5 <= 1;
C6 <= 1;
C7 <= 1;
C8 <= 1;
C9 <= 1;
C10 <= 1;
C11 <= 1;
C12 <= 1;
C13 <= 1;
C14 <= 1;
C15 <= 1;
C16 <= 1;
C17 <= 1;
C18 <= 1;
C19 <= 1;
C20 <= 1;
C21 <= 1;
C22 <= 1;
C23 <= 1;
C24 <= 1;
C25 <= 1;
C26 <= 1;
C27 <= 1;
C28 <= 1;
C29 <= 1;
C30 <= 1;
C31 <= 1;
C32 <= 1;
C33 <= 1;
C34 <= 1;
C35 <= 1;
C36 <= 1;
C37 <= 1;
C38 <= 1;
C39 <= 1;
C40 <= 1;
C41 <= 1;
C42 <= 1;
C43 <= 1;
C44 <= 1;
C45 <= 1;
C46 <= 1;
C47 <= 1;
C48 <= 1;
C49 <= 1;
C50 <= 1;
C51 <= 1;
C52 <= 1;
C53 <= 1;
C54 <= 1;
C55 <= 1;
C56 <= 1;
C57 <= 1;
C58 <= 1;
C59 <= 1;
C60 <= 1;
C61 <= 1;
C62 <= 1;
C63 <= 1;
C64 <= 1;
C65 <= 1;
C66 <= 1;
C67 <= 1;
C68 <= 1;
C69 <= 1;
C70 <= 1;
C71 <= 1;
C72 <= 1;
C73 <= 1;
C74 <= 1;
C75 <= 1;
C76 <= 1;
C77 <= 1;
C78 <= 1;
C79 <= 1;
C80 <= 1;
C81 <= 1;
C82 <= 1;
C83 <= 1;
C84 <= 1;
C85 <= 1;
C86 <= 1;
C87 <= 1;
C88 <= 1;
C89 <= 1;
C90 <= 1;
C91 <= 1;
C92 <= 1;
C93 <= 1;
C94 <= 1;
C95 <= 1;
C96 <= 1;
C97 <= 1;
C98 <= 1;
C99 <= 1;
C100 <= 1;
C101 <= 1;
C102 <= 1;
C103 <= 1;
C104 <= 1;
C105 <= 1;
C106 <= 1;
C107 <= 1;
C108 <= 1;
C109 <= 1;
C110 <= 1;
C111 <= 1;
C112 <= 1;
C113 <= 1;
C114 <= 1;
C115 <= 1;
C116 <= 1;
C117 <= 1;
C118 <= 1;
C119 <= 1;
C120 <= 1;
C121 <= 1;
C122 <= 1;
C123 <= 1;
C124 <= 1;
C125 <= 1;
C126 <= 1;
C127 <= 1;
C128 <= 1;
C129 <= 1;
C130 <= 1;
C131 <= 1;
C132 <= 1;
C133 <= 1;
C134 <= 1;
C135 <= 1;
C136 <= 1;
C137 <= 1;
C138 <= 1;
C139 <= 1;
C140 <= 1;
C141 <= 1;
C142 <= 1;
C143 <= 1;
C144 <= 1;
C145 <= 1;
C146 <= 1;
C147 <= 1;
C148 <= 1;
C149 <= 1;
C150 <= 1;
C151 <= 1;
C152 <= 1;
C153 <= 1;
C154 <= 1;
C155 <= 1;
C156 <= 1;
C157 <= 1;
C158 <= 1;
C159 <= 1;
C160 <= 1;
C161 <= 1;
C162 <= 1;
C163 <= 1;
C164 <= 1;
C165 <= 1;
C166 <= 1;
C167 <= 1;
C168 <= 1;
C169 <= 1;
C170 <= 1;
C171 <= 1;
C172 <= 1;
C173 <= 1;
C174 <= 1;
C175 <= 1;
C176 <= 1;
C177 <= 1;
C178 <= 1;
C179 <= 1;
C180 <= 1;
C181 <= 1;
C182 <= 1;
C183 <= 1;
C184 <= 1;
C185 <= 1;
C186 <= 1;
C187 <= 1;
C188 <= 1;
C189 <= 1;
C190 <= 1;
C191 <= 1;
C192 <= 1;
C193 <= 1;
C194 <= 1;
C195 <= 1;

/* Integer definitions */
int C1,C2,C3,C4,C5,C6,C7,C8,C9,C10,C11,C12,C13,C14,C15,C16,C17,C18,C19,C20,C21,C22,C23,C24,C25,C26,C27,C28,C29,C30,C31,C32,C33,C34,C35,C36,C37,C38,C39,C40,C41,C42,C43,C44,C45,C46,C47,C48,C49,C50,C51,C52,C53,C54,C55,C56,C57,C58,C59,C60,C61,C62,C63,C64,C65,C66,C67,C68,C69,C70,C71,C72,C73,C74,C75,C76,C77,C78,C79,C80,C81,C82,C83,C84,C85,C86,C87,C88,C89,C90,C91,C92,C93,C94,C95,C96,C97,C98,C99,C100,C101,C102,C103,C104,C105,C106,C107,C108,C109,C110,C111,C112,C113,C114,C115,C116,C117,C118,C119,C120,C121,C122,C123,C124,C125,C126,C127,C128,C129,C130,C131,C132,C133,C134,C135,C136,C137,C138,C139,C140,C141,C142,C143,C144,C145,C146,C147,C148,C149,C150,C151,C152,C153,C154,C155,C156,C157,C158,C159,C160,C161,C162,C163,C164,C165,C166,C167,C168,C169,C170,C171,C172,C173,C174,C175,C176,C177,C178,C179,C180,C181,C182,C183,C184,C185,C186,C187,C188,C189,C190,C191,C192,C193,C194,C195,C197;
